Bruniera/ragionamento automatico/progetto/benchmark/asp/mid9.lp
start(0).
limit(6).
n(14).
strada(0,2,6).
strada(0,5,16).
strada(0,6,12).
strada(0,7,3).
strada(0,12,15).
strada(0,13,14).
strada(1,3,17).
strada(1,5,14).
strada(1,10,12).
strada(1,11,11).
strada(1,12,8).
strada(2,0,14).
strada(2,1,0).
strada(2,3,14).
strada(2,5,6).
strada(2,7,1).
strada(2,9,12).
strada(2,12,11).
strada(3,4,7).
strada(3,5,16).
strada(3,6,14).
strada(3,9,11).
strada(3,12,15).
strada(4,0,8).
strada(4,1,16).
strada(4,3,7).
strada(4,5,10).
strada(4,6,7).
strada(4,7,18).
strada(4,9,9).
strada(4,10,17).
strada(5,1,2).
strada(5,2,7).
strada(5,4,15).
strada(5,6,6).
strada(5,7,3).
strada(5,8,18).
strada(5,9,14).
strada(5,10,14).
strada(5,11,3).
strada(6,0,20).
strada(6,1,20).
strada(6,8,16).
strada(6,9,8).
strada(6,12,15).
strada(7,1,16).
strada(7,2,4).
strada(7,6,3).
strada(7,8,4).
strada(7,9,5).
strada(8,1,8).
strada(8,4,7).
strada(8,9,13).
strada(8,10,8).
strada(8,11,3).
strada(8,12,8).
strada(9,2,15).
strada(9,3,15).
strada(9,4,17).
strada(9,5,11).
strada(9,7,17).
strada(9,8,2).
strada(9,10,8).
strada(10,0,8).
strada(10,1,15).
strada(10,12,4).
strada(10,13,2).
strada(11,1,3).
strada(11,2,5).
strada(11,6,7).
strada(11,7,0).
strada(11,12,4).
strada(12,2,18).
strada(12,5,14).
strada(12,10,16).
strada(12,13,4).
strada(13,0,8).
strada(13,2,12).
strada(13,4,12).
strada(13,5,11).
strada(13,12,1).
