Bruniera/ragionamento automatico/progetto/benchmark/minizinc/mid9.dzn
start = 1;
limit = 6;
n = 14;
m=[|-1,-1,6,-1,-1,16,12,3,-1,-1,-1,-1,15,14,
|-1,-1,-1,17,-1,14,-1,-1,-1,-1,12,11,8,-1,
|14,0,-1,14,-1,6,-1,1,-1,12,-1,-1,11,-1,
|-1,-1,-1,-1,7,16,14,-1,-1,11,-1,-1,15,-1,
|8,16,-1,7,-1,10,7,18,-1,9,17,-1,-1,-1,
|-1,2,7,-1,15,-1,6,3,18,14,14,3,-1,-1,
|20,20,-1,-1,-1,-1,-1,-1,16,8,-1,-1,15,-1,
|-1,16,4,-1,-1,-1,3,-1,4,5,-1,-1,-1,-1,
|-1,8,-1,-1,7,-1,-1,-1,-1,13,8,3,8,-1,
|-1,-1,15,15,17,11,-1,17,2,-1,8,-1,-1,-1,
|8,15,-1,-1,-1,-1,-1,-1,-1,-1,-1,-1,4,2,
|-1,3,5,-1,-1,-1,7,0,-1,-1,-1,-1,4,-1,
|-1,-1,18,-1,-1,14,-1,-1,-1,-1,16,-1,-1,4,
|8,-1,12,-1,12,11,-1,-1,-1,-1,-1,-1,1,-1,
|]
;